c File: instances/14_0.20_2.col
c
c Description: Random graph of size 14 vertices and P(0.2) of edges between any two vertices.
p col 14 91
e 1 5
e 1 8
e 1 11
e 1 12
e 2 13
e 2 14
e 3 5
e 3 7
e 3 9
e 3 14
e 4 6
e 5 6
e 5 9
e 5 10
e 5 11
e 5 14
e 8 14